;; sequence(s): A168670
;; terms: 1 8 12 19 23 30 34 41 45 52 56 63 67 74 78 85 89 96 100 107
;; small program: loop(1 + ((1 + 2) * (x div y)), 2, x) + x
;; fast program: 1 + (((1 + 2) * ((x - (x div 2)) + x)) + x)
(set-logic UFNIA)
(define-fun divf ((a Int) (b Int)) Int (ite (< 0 b) (div a b) (div (- a) (- b))))
(declare-fun f0 (Int Int) Int)
(declare-fun g0 () Int)
(declare-fun h0 (Int) Int)
(declare-fun u0 (Int Int) Int)
(declare-fun v0 (Int) Int)
(declare-fun small (Int) Int)
(declare-fun fast (Int) Int)
(assert (forall ((x Int) (y Int)) (= (f0 x y) (+ 1 (* (+ 1 2) (divf x y))))))
(assert (= g0 2))
(assert (forall ((x Int)) (= (h0 x) x)))
(assert (forall ((x Int) (y Int)) (= (u0 x y) (ite (<= x 0) y (f0 (u0 (- x 1) y) x)))))
(assert (forall ((x Int)) (= (v0 x) (u0 g0 (h0 x)))))
(assert (forall ((x Int)) (= (small x) (+ (v0 x) x))))
(assert (forall ((x Int)) (= (fast x) (+ 1 (+ (* (+ 1 2) (+ (- x (divf x 2)) x)) x)))))
(assert (exists ((c Int)) (and (>= c 0) (not (= (small c) (fast c))))))
(check-sat)
